/*********************************************
 * OPL 12.6.2.0 Data
 * Author: Y
 * Creation Date: Mar 16, 2018 at 11:05:23 PM
 *********************************************/
COST = [100 100 100 100 100 100 100 100 1000 200 200 200 200 200 1000 1000 300 1000];
VALUE = [200 0 0 0 0 0 300 0 0 500 0 200 0 0 0 0 1000 1200];
ARC = [ [1 2 3]
		[2 3 4]
		[3 4 5]
		[4 5 6]
		[5 6 7]
		[6 7 8]
		[9 10 11]
		[10 11 12]
		[11 12 13]
		[12 13 14]
	];